NAME : random_3
COMMENT : 31 random nodes
TYPE : TSP
DIMENSION : 31
EDGE_WEIGHT_TYPE : EUC_2D
NODE_COORD_SECTION
1 4293 4305
2 1141 4599
3 4150 -1862
4 2668 -680
5 -521 -498
6 -2102 -1080
7 -527 -1936
8 1859 -360
9 -1292 2895
10 -1412 -2152
11 -2286 1049
12 4015 -1110
13 -966 3513
14 3733 1515
15 2616 1199
16 4288 2027
17 -2550 -376
18 -463 3411
19 34 -831
20 -2664 3264
21 -1397 -389
22 2707 2415
23 -909 -745
24 4266 493
25 1359 4556
26 125 3746
27 936 -1326
28 3878 3051
29 3004 -2098
30 -853 -1990
31 -2175 3303
EOF